\ LP format - for model browsing. Use MPS format to capture full model detail.
Maximize
  2 x_1 + 9 x_2 + 5 x_3 + 9 x_4 + x_5 + 3 x_6 + x_7 + x_8 + 3 x_9 + 5 x_10
   + 8 x_11 + 7 x_12 + 5 x_13 + 6 x_14 + 6 x_15 + 7 x_16 + 5 x_17 + 8 x_18
   + 6 x_19 + 6 x_20 + 6 x_21 + 3 x_22 + 7 x_23 + 8 x_24 + 2 x_25
Subject To
 C_1: x_2 + 5 x_3 + x_6 + 3 x_7 + 3 x_8 + 8 x_9 + x_14 + 8 x_16 + 8 x_17
   + 7 x_18 + 2 x_22 <= 23
 C_2: 10 x_2 + 5 x_4 + 9 x_7 + x_8 + 6 x_11 + 2 x_12 + 2 x_13 + 10 x_14
   + 3 x_16 + 7 x_18 + 2 x_19 + 4 x_22 + 5 x_23 + 10 x_25 <= 38
 C_3: 4 x_2 + x_4 + 10 x_5 + 9 x_8 + x_14 + 6 x_19 + 10 x_20 + 4 x_21
   + 10 x_24 <= 27
 C_4: 6 x_1 + 8 x_3 + 6 x_4 + 9 x_6 + 3 x_7 + 8 x_8 + 9 x_9 + 9 x_13
   + 10 x_15 + x_18 <= 34
 C_5: 6 x_1 + 8 x_2 + 4 x_3 + 2 x_5 + 3 x_6 + 5 x_9 + 4 x_11 + 9 x_14
   + 9 x_17 + 2 x_18 + 8 x_25 <= 30
 C_6: 8 x_1 + 2 x_4 + 4 x_5 + 7 x_10 + 8 x_11 + 6 x_14 + 5 x_15 + 6 x_16
   + 10 x_17 + 6 x_22 <= 31
 C_7: 4 x_2 + 5 x_3 + 8 x_4 + 5 x_7 + 4 x_8 + 9 x_10 + 9 x_12 + 9 x_14
   + 10 x_15 + x_19 + 2 x_20 + 6 x_24 <= 36
 C_8: x_2 + 7 x_4 + 9 x_5 + 5 x_6 + 6 x_10 + 8 x_12 + 9 x_13 + 3 x_14
   + 6 x_15 + 5 x_16 + 4 x_17 + 6 x_18 + 10 x_19 + 4 x_23 + 5 x_25 <= 44
 C_9: 4 x_1 + 9 x_4 + 7 x_5 + 7 x_7 + 3 x_8 + 4 x_11 + 9 x_15 + 4 x_16
   + 8 x_20 + 2 x_22 + 8 x_25 <= 32
 C_10: 9 x_1 + x_4 + 10 x_6 + 10 x_7 + 10 x_8 + 10 x_9 + 8 x_11 + 7 x_15
   + 9 x_16 + 10 x_17 + 8 x_19 + 7 x_20 <= 49
Bounds
Binaries
 x_1 x_2 x_3 x_4 x_5 x_6 x_7 x_8 x_9 x_10 x_11 x_12 x_13 x_14 x_15 x_16
 x_17 x_18 x_19 x_20 x_21 x_22 x_23 x_24 x_25
End
